<instance format="XCSP3" type="COP">
  <variables>
    <array id="x" size="[80]"> 0..79 </array>
  </variables>
  <constraints>
    <group>
      <intension> ne(%0,%1) </intension>
      <args> x[0] x[13] </args>
      <args> x[1] x[13] </args>
      <args> x[1] x[36] </args>
      <args> x[1] x[74] </args>
      <args> x[2] x[4] </args>
      <args> x[2] x[24] </args>
      <args> x[2] x[26] </args>
      <args> x[2] x[27] </args>
      <args> x[2] x[32] </args>
      <args> x[2] x[36] </args>
      <args> x[2] x[39] </args>
      <args> x[2] x[43] </args>
      <args> x[2] x[45] </args>
      <args> x[2] x[53] </args>
      <args> x[2] x[56] </args>
      <args> x[2] x[59] </args>
      <args> x[2] x[62] </args>
      <args> x[2] x[68] </args>
      <args> x[2] x[72] </args>
      <args> x[3] x[6] </args>
      <args> x[3] x[8] </args>
      <args> x[3] x[18] </args>
      <args> x[3] x[33] </args>
      <args> x[3] x[46] </args>
      <args> x[3] x[49] </args>
      <args> x[3] x[65] </args>
      <args> x[3] x[67] </args>
      <args> x[3] x[71] </args>
      <args> x[3] x[78] </args>
      <args> x[4] x[9] </args>
      <args> x[4] x[16] </args>
      <args> x[4] x[19] </args>
      <args> x[4] x[21] </args>
      <args> x[4] x[27] </args>
      <args> x[4] x[36] </args>
      <args> x[4] x[38] </args>
      <args> x[5] x[15] </args>
      <args> x[5] x[27] </args>
      <args> x[5] x[34] </args>
      <args> x[5] x[36] </args>
      <args> x[5] x[47] </args>
      <args> x[5] x[54] </args>
      <args> x[5] x[56] </args>
      <args> x[5] x[57] </args>
      <args> x[5] x[71] </args>
      <args> x[6] x[8] </args>
      <args> x[6] x[14] </args>
      <args> x[6] x[18] </args>
      <args> x[6] x[33] </args>
      <args> x[6] x[37] </args>
      <args> x[6] x[46] </args>
      <args> x[6] x[49] </args>
      <args> x[6] x[65] </args>
      <args> x[6] x[67] </args>
      <args> x[6] x[71] </args>
      <args> x[6] x[78] </args>
      <args> x[7] x[55] </args>
      <args> x[7] x[71] </args>
      <args> x[8] x[14] </args>
      <args> x[8] x[18] </args>
      <args> x[8] x[27] </args>
      <args> x[8] x[33] </args>
      <args> x[8] x[34] </args>
      <args> x[8] x[36] </args>
      <args> x[8] x[37] </args>
      <args> x[8] x[46] </args>
      <args> x[8] x[49] </args>
      <args> x[8] x[65] </args>
      <args> x[8] x[67] </args>
      <args> x[8] x[71] </args>
      <args> x[8] x[78] </args>
      <args> x[9] x[16] </args>
      <args> x[9] x[19] </args>
      <args> x[9] x[21] </args>
      <args> x[9] x[36] </args>
      <args> x[9] x[38] </args>
      <args> x[10] x[41] </args>
      <args> x[10] x[71] </args>
      <args> x[11] x[13] </args>
      <args> x[12] x[42] </args>
      <args> x[13] x[23] </args>
      <args> x[13] x[31] </args>
      <args> x[13] x[36] </args>
      <args> x[13] x[40] </args>
      <args> x[13] x[64] </args>
      <args> x[13] x[74] </args>
      <args> x[13] x[79] </args>
      <args> x[14] x[18] </args>
      <args> x[14] x[22] </args>
      <args> x[14] x[25] </args>
      <args> x[14] x[28] </args>
      <args> x[14] x[32] </args>
      <args> x[14] x[33] </args>
      <args> x[14] x[36] </args>
      <args> x[14] x[37] </args>
      <args> x[14] x[47] </args>
      <args> x[14] x[56] </args>
      <args> x[14] x[58] </args>
      <args> x[14] x[65] </args>
      <args> x[14] x[67] </args>
      <args> x[14] x[71] </args>
      <args> x[14] x[75] </args>
      <args> x[14] x[76] </args>
      <args> x[14] x[78] </args>
      <args> x[15] x[34] </args>
      <args> x[15] x[47] </args>
      <args> x[15] x[54] </args>
      <args> x[15] x[56] </args>
      <args> x[15] x[57] </args>
      <args> x[15] x[71] </args>
      <args> x[16] x[19] </args>
      <args> x[16] x[21] </args>
      <args> x[16] x[36] </args>
      <args> x[16] x[38] </args>
      <args> x[17] x[43] </args>
      <args> x[17] x[47] </args>
      <args> x[17] x[56] </args>
      <args> x[18] x[33] </args>
      <args> x[18] x[37] </args>
      <args> x[18] x[46] </args>
      <args> x[18] x[49] </args>
      <args> x[18] x[65] </args>
      <args> x[18] x[67] </args>
      <args> x[18] x[71] </args>
      <args> x[18] x[78] </args>
      <args> x[19] x[21] </args>
      <args> x[19] x[36] </args>
      <args> x[19] x[38] </args>
      <args> x[21] x[36] </args>
      <args> x[21] x[38] </args>
      <args> x[22] x[76] </args>
      <args> x[24] x[26] </args>
      <args> x[24] x[32] </args>
      <args> x[24] x[39] </args>
      <args> x[24] x[62] </args>
      <args> x[24] x[68] </args>
      <args> x[24] x[72] </args>
      <args> x[25] x[28] </args>
      <args> x[25] x[58] </args>
      <args> x[25] x[76] </args>
      <args> x[26] x[32] </args>
      <args> x[26] x[39] </args>
      <args> x[26] x[62] </args>
      <args> x[26] x[68] </args>
      <args> x[26] x[72] </args>
      <args> x[27] x[29] </args>
      <args> x[27] x[30] </args>
      <args> x[27] x[34] </args>
      <args> x[27] x[36] </args>
      <args> x[27] x[42] </args>
      <args> x[27] x[43] </args>
      <args> x[27] x[45] </args>
      <args> x[27] x[54] </args>
      <args> x[27] x[56] </args>
      <args> x[27] x[57] </args>
      <args> x[27] x[58] </args>
      <args> x[27] x[63] </args>
      <args> x[27] x[71] </args>
      <args> x[28] x[35] </args>
      <args> x[28] x[36] </args>
      <args> x[28] x[44] </args>
      <args> x[28] x[58] </args>
      <args> x[28] x[76] </args>
      <args> x[29] x[36] </args>
      <args> x[29] x[58] </args>
      <args> x[30] x[36] </args>
      <args> x[32] x[39] </args>
      <args> x[32] x[58] </args>
      <args> x[32] x[62] </args>
      <args> x[32] x[68] </args>
      <args> x[32] x[72] </args>
      <args> x[33] x[37] </args>
      <args> x[33] x[46] </args>
      <args> x[33] x[47] </args>
      <args> x[33] x[49] </args>
      <args> x[33] x[65] </args>
      <args> x[33] x[67] </args>
      <args> x[33] x[71] </args>
      <args> x[33] x[78] </args>
      <args> x[34] x[36] </args>
      <args> x[34] x[43] </args>
      <args> x[34] x[47] </args>
      <args> x[34] x[54] </args>
      <args> x[34] x[56] </args>
      <args> x[34] x[57] </args>
      <args> x[36] x[38] </args>
      <args> x[36] x[42] </args>
      <args> x[36] x[43] </args>
      <args> x[36] x[45] </args>
      <args> x[36] x[52] </args>
      <args> x[36] x[54] </args>
      <args> x[36] x[56] </args>
      <args> x[36] x[57] </args>
      <args> x[36] x[58] </args>
      <args> x[36] x[59] </args>
      <args> x[36] x[60] </args>
      <args> x[36] x[61] </args>
      <args> x[36] x[63] </args>
      <args> x[36] x[65] </args>
      <args> x[36] x[66] </args>
      <args> x[36] x[69] </args>
      <args> x[36] x[71] </args>
      <args> x[36] x[74] </args>
      <args> x[36] x[76] </args>
      <args> x[36] x[77] </args>
      <args> x[37] x[47] </args>
      <args> x[37] x[51] </args>
      <args> x[37] x[65] </args>
      <args> x[37] x[67] </args>
      <args> x[37] x[71] </args>
      <args> x[37] x[78] </args>
      <args> x[39] x[62] </args>
      <args> x[39] x[68] </args>
      <args> x[39] x[72] </args>
      <args> x[41] x[71] </args>
      <args> x[42] x[77] </args>
      <args> x[43] x[47] </args>
      <args> x[43] x[54] </args>
      <args> x[43] x[56] </args>
      <args> x[43] x[57] </args>
      <args> x[43] x[58] </args>
      <args> x[43] x[73] </args>
      <args> x[44] x[75] </args>
      <args> x[45] x[53] </args>
      <args> x[46] x[65] </args>
      <args> x[46] x[71] </args>
      <args> x[47] x[54] </args>
      <args> x[47] x[56] </args>
      <args> x[47] x[57] </args>
      <args> x[49] x[65] </args>
      <args> x[49] x[67] </args>
      <args> x[49] x[71] </args>
      <args> x[49] x[78] </args>
      <args> x[50] x[56] </args>
      <args> x[54] x[56] </args>
      <args> x[54] x[57] </args>
      <args> x[54] x[71] </args>
      <args> x[56] x[57] </args>
      <args> x[56] x[58] </args>
      <args> x[56] x[71] </args>
      <args> x[56] x[75] </args>
      <args> x[57] x[71] </args>
      <args> x[58] x[63] </args>
      <args> x[58] x[76] </args>
      <args> x[62] x[68] </args>
      <args> x[62] x[72] </args>
      <args> x[65] x[67] </args>
      <args> x[65] x[71] </args>
      <args> x[65] x[78] </args>
      <args> x[67] x[71] </args>
      <args> x[67] x[78] </args>
      <args> x[68] x[72] </args>
      <args> x[71] x[78] </args>
      <args> x[73] x[76] </args>
    </group>
  </constraints>
  <objectives>
    <minimize type="maximum"> x[] </minimize>
  </objectives>
</instance>
